c colouring generated by benchmark framework
p edge 300 21375
v 1 35
v 2 45
v 3 31
v 4 51
v 5 30
v 6 27
v 7 0
v 8 2
v 9 41
v 10 14
v 11 25
v 12 24
v 13 19
v 14 46
v 15 52
v 16 3
v 17 29
v 18 22
v 19 20
v 20 21
v 21 19
v 22 41
v 23 13
v 24 6
v 25 1
v 26 46
v 27 18
v 28 13
v 29 19
v 30 8
v 31 0
v 32 10
v 33 38
v 34 7
v 35 25
v 36 38
v 37 15
v 38 36
v 39 5
v 40 26
v 41 28
v 42 10
v 43 18
v 44 36
v 45 1
v 46 11
v 47 0
v 48 1
v 49 41
v 50 27
v 51 27
v 52 42
v 53 21
v 54 6
v 55 29
v 56 8
v 57 17
v 58 44
v 59 6
v 60 11
v 61 2
v 62 8
v 63 10
v 64 39
v 65 29
v 66 2
v 67 31
v 68 21
v 69 7
v 70 0
v 71 2
v 72 14
v 73 45
v 74 6
v 75 12
v 76 38
v 77 33
v 78 11
v 79 34
v 80 12
v 81 23
v 82 14
v 83 4
v 84 31
v 85 30
v 86 5
v 87 2
v 88 30
v 89 34
v 90 7
v 91 4
v 92 1
v 93 9
v 94 4
v 95 40
v 96 31
v 97 16
v 98 17
v 99 16
v 100 52
v 101 35
v 102 10
v 103 24
v 104 29
v 105 14
v 106 5
v 107 3
v 108 23
v 109 27
v 110 2
v 111 38
v 112 47
v 113 9
v 114 20
v 115 26
v 116 16
v 117 4
v 118 44
v 119 23
v 120 11
v 121 23
v 122 3
v 123 13
v 124 33
v 125 39
v 126 19
v 127 26
v 128 2
v 129 23
v 130 43
v 131 7
v 132 13
v 133 50
v 134 18
v 135 45
v 136 21
v 137 11
v 138 45
v 139 44
v 140 3
v 141 19
v 142 28
v 143 1
v 144 20
v 145 11
v 146 17
v 147 33
v 148 24
v 149 8
v 150 5
v 151 24
v 152 20
v 153 13
v 154 47
v 155 9
v 156 26
v 157 40
v 158 25
v 159 30
v 160 18
v 161 17
v 162 8
v 163 31
v 164 36
v 165 17
v 166 50
v 167 41
v 168 51
v 169 49
v 170 24
v 171 5
v 172 14
v 173 3
v 174 37
v 175 40
v 176 14
v 177 42
v 178 18
v 179 25
v 180 26
v 181 6
v 182 3
v 183 44
v 184 29
v 185 14
v 186 43
v 187 49
v 188 3
v 189 34
v 190 9
v 191 19
v 192 13
v 193 34
v 194 24
v 195 17
v 196 9
v 197 40
v 198 12
v 199 42
v 200 14
v 201 15
v 202 4
v 203 12
v 204 16
v 205 48
v 206 27
v 207 15
v 208 1
v 209 36
v 210 8
v 211 15
v 212 21
v 213 12
v 214 22
v 215 35
v 216 11
v 217 28
v 218 19
v 219 22
v 220 43
v 221 17
v 222 33
v 223 1
v 224 22
v 225 5
v 226 19
v 227 29
v 228 48
v 229 5
v 230 28
v 231 27
v 232 20
v 233 10
v 234 37
v 235 9
v 236 16
v 237 15
v 238 37
v 239 0
v 240 21
v 241 7
v 242 40
v 243 32
v 244 0
v 245 25
v 246 1
v 247 6
v 248 9
v 249 12
v 250 49
v 251 0
v 252 3
v 253 13
v 254 32
v 255 23
v 256 6
v 257 32
v 258 35
v 259 41
v 260 33
v 261 11
v 262 21
v 263 41
v 264 0
v 265 24
v 266 23
v 267 35
v 268 20
v 269 48
v 270 28
v 271 12
v 272 47
v 273 5
v 274 4
v 275 43
v 276 37
v 277 34
v 278 29
v 279 30
v 280 39
v 281 31
v 282 18
v 283 10
v 284 16
v 285 51
v 286 39
v 287 9
v 288 7
v 289 32
v 290 7
v 291 22
v 292 33
v 293 0
v 294 20
v 295 21
v 296 34
v 297 4
v 298 3
v 299 8
v 300 20
